100 500 10 200 10 100
18 104
93 40
46 39
81 57
38 51
59 158
46 119
94 131
21 159
45 23
10 185
97 57
64 48
90 145
51 183
34 27
22 88
97 60
32 56
29 197
37 68
58 18
15 59
53 181
82 144
21 101
22 112
31 77
46 85
88 49
87 163
45 165
92 158
56 179
72 143
91 122
70 151
35 32
52 114
17 38
29 72
32 29
52 143
34 168
26 129
74 84
87 95
65 153
13 107
72 78
12 151
90 95
63 164
100 123
56 185
55 169
89 146
33 52
10 150
82 106
32 48
84 160
27 95
12 28
22 65
75 85
52 152
50 151
43 130
36 36
74 67
81 14
38 57
19 114
23 110
19 75
47 43
70 124
94 158
65 164
63 104
48 72
94 40
73 182
54 107
79 118
97 33
43 21
25 22
26 77
97 178
37 113
27 188
24 14
86 22
44 12
71 16
17 183
86 109
54 49
